Route #1: 1 28 17 36 2 53 4 14 50 37 30 43 27 1
Route #2: 1 33 34 3 55 35 31 56 12 32 21 44 11 1
Route #3: 1 26 54 7 25 42 46 48 16 1
Route #4: 1 8 38 40 5 22 1
Route #5: 1 41 52 45 15 18 9 29 47 1
Route #6: 1 20 19 24 13 51 23 39 10 6 1
Route #7: 1 49 1
cost: 838
